\ LP format - for model browsing. Use MPS format to capture full model detail.
Minimize
  x0 + x1 + x2 + x3 + x4 + x5 + x6 + x7 + x8 + x9 + x10 + x11 + x12 + x13
   + x14 + x15 + x16 + x17 + x18 + x19 + x20 + x21 + x22 + x23 + x24 + x25
   + x26 + x27 + x28 + x29 + x30 + x31 + x32 + x33 + x34 + x35 + x36 + x37
   + x38 + x39 + x40 + x41 + x42 + x43 + x44 + x45 + x46 + x47 + x48 + x49
   + x50 + x51 + x52 + x53 + x54 + x55 + x56 + x57 + x58 + x59 + x60 + x61
   + x62 + x63 + x64 + x65 + x66 + x67 + x68 + x69 + x70 + x71 + x72 + x73
   + x74 + x75 + x76 + x77 + x78 + x79 + x80 + x81 + x82 + x83 + x84 + x85
   + x86 + x87 + x88 + x89 + x90 + x91 + x92 + x93 + x94 + x95 + x96 + x97
   + x98 + x99 + x100 + x101 + x102 + x103 + x104 + x105 + x106 + x107
   + x108 + x109 + x110 + x111 + x112 + x113 + x114 + x115 + x116 + x117
   + x118 + x119 + x120 + x121 + x122 + x123 + x124 + x125 + x126 + x127
   + x128 + x129 + x130 + x131 + x132 + x133 + x134 + x135 + x136 + x137
   + x138 + x139 + x140 + x141 + x142 + x143 + x144 + x145 + x146 + x147
   + x148 + x149 + x150 + x151 + x152 + x153 + x154 + x155 + x156 + x157
   + x158 + x159 + x160 + x161 + x162 + x163 + x164 + x165 + x166 + x167
   + x168 + x169 + x170 + x171 + x172 + x173 + x174 + x175 + x176 + x177
   + x178 + x179 + x180 + x181 + x182 + x183 + x184 + x185 + x186 + x187
   + x188 + x189 + x190 + x191 + x192 + x193 + x194 + x195 + x196 + x197
   + x198 + x199 + x200 + x201 + x202 + x203 + x204 + x205 + x206 + x207
   + x208 + x209 + x210 + x211 + x212 + x213 + x214 + x215 + x216 + x217
   + x218 + x219 + x220 + x221 + x222 + x223 + x224 + x225 + x226 + x227
   + x228 + x229 + x230 + x231 + x232 + x233 + x234 + x235 + x236 + x237
   + x238 + x239 + x240 + x241 + x242 + x243 + x244 + x245 + x246 + x247
   + x248 + x249 + x250 + x251 + x252 + x253 + x254 + x255 + x256 + x257
   + x258 + x259 + x260 + x261 + x262 + x263 + x264 + x265 + x266 + x267
   + x268 + x269 + x270 + x271 + x272 + x273 + x274 + x275 + x276 + x277
   + x278 + x279 + x280 + x281 + x282 + x283 + x284 + x285 + x286 + x287
Subject To
 R0: x0 + x1 + x2 + x3 + x6 + x9 + x18 + x36 + x72 + x144 >= 1
 R1: x0 + x1 + x2 + x4 + x7 + x10 + x19 + x37 + x73 + x145 >= 1
 R2: x0 + x1 + x2 + x5 + x8 + x11 + x20 + x38 + x74 + x146 >= 1
 R3: x0 + x3 + x4 + x5 + x6 + x12 + x21 + x39 + x75 + x147 >= 1
 R4: x1 + x3 + x4 + x5 + x7 + x13 + x22 + x40 + x76 + x148 >= 1
 R5: x2 + x3 + x4 + x5 + x8 + x14 + x23 + x41 + x77 + x149 >= 1
 R6: x0 + x3 + x6 + x7 + x8 + x15 + x24 + x42 + x78 + x150 >= 1
 R7: x1 + x4 + x6 + x7 + x8 + x16 + x25 + x43 + x79 + x151 >= 1
 R8: x2 + x5 + x6 + x7 + x8 + x17 + x26 + x44 + x80 + x152 >= 1
 R9: x0 + x9 + x10 + x11 + x12 + x15 + x27 + x45 + x81 + x153 >= 1
 R10: x1 + x9 + x10 + x11 + x13 + x16 + x28 + x46 + x82 + x154 >= 1
 R11: x2 + x9 + x10 + x11 + x14 + x17 + x29 + x47 + x83 + x155 >= 1
 R12: x3 + x9 + x12 + x13 + x14 + x15 + x30 + x48 + x84 + x156 >= 1
 R13: x4 + x10 + x12 + x13 + x14 + x16 + x31 + x49 + x85 + x157 >= 1
 R14: x5 + x11 + x12 + x13 + x14 + x17 + x32 + x50 + x86 + x158 >= 1
 R15: x6 + x9 + x12 + x15 + x16 + x17 + x33 + x51 + x87 + x159 >= 1
 R16: x7 + x10 + x13 + x15 + x16 + x17 + x34 + x52 + x88 + x160 >= 1
 R17: x8 + x11 + x14 + x15 + x16 + x17 + x35 + x53 + x89 + x161 >= 1
 R18: x0 + x18 + x19 + x20 + x21 + x24 + x27 + x54 + x90 + x162 >= 1
 R19: x1 + x18 + x19 + x20 + x22 + x25 + x28 + x55 + x91 + x163 >= 1
 R20: x2 + x18 + x19 + x20 + x23 + x26 + x29 + x56 + x92 + x164 >= 1
 R21: x3 + x18 + x21 + x22 + x23 + x24 + x30 + x57 + x93 + x165 >= 1
 R22: x4 + x19 + x21 + x22 + x23 + x25 + x31 + x58 + x94 + x166 >= 1
 R23: x5 + x20 + x21 + x22 + x23 + x26 + x32 + x59 + x95 + x167 >= 1
 R24: x6 + x18 + x21 + x24 + x25 + x26 + x33 + x60 + x96 + x168 >= 1
 R25: x7 + x19 + x22 + x24 + x25 + x26 + x34 + x61 + x97 + x169 >= 1
 R26: x8 + x20 + x23 + x24 + x25 + x26 + x35 + x62 + x98 + x170 >= 1
 R27: x9 + x18 + x27 + x28 + x29 + x30 + x33 + x63 + x99 + x171 >= 1
 R28: x10 + x19 + x27 + x28 + x29 + x31 + x34 + x64 + x100 + x172 >= 1
 R29: x11 + x20 + x27 + x28 + x29 + x32 + x35 + x65 + x101 + x173 >= 1
 R30: x12 + x21 + x27 + x30 + x31 + x32 + x33 + x66 + x102 + x174 >= 1
 R31: x13 + x22 + x28 + x30 + x31 + x32 + x34 + x67 + x103 + x175 >= 1
 R32: x14 + x23 + x29 + x30 + x31 + x32 + x35 + x68 + x104 + x176 >= 1
 R33: x15 + x24 + x27 + x30 + x33 + x34 + x35 + x69 + x105 + x177 >= 1
 R34: x16 + x25 + x28 + x31 + x33 + x34 + x35 + x70 + x106 + x178 >= 1
 R35: x17 + x26 + x29 + x32 + x33 + x34 + x35 + x71 + x107 + x179 >= 1
 R36: x0 + x36 + x37 + x38 + x39 + x42 + x45 + x54 + x108 + x180 >= 1
 R37: x1 + x36 + x37 + x38 + x40 + x43 + x46 + x55 + x109 + x181 >= 1
 R38: x2 + x36 + x37 + x38 + x41 + x44 + x47 + x56 + x110 + x182 >= 1
 R39: x3 + x36 + x39 + x40 + x41 + x42 + x48 + x57 + x111 + x183 >= 1
 R40: x4 + x37 + x39 + x40 + x41 + x43 + x49 + x58 + x112 + x184 >= 1
 R41: x5 + x38 + x39 + x40 + x41 + x44 + x50 + x59 + x113 + x185 >= 1
 R42: x6 + x36 + x39 + x42 + x43 + x44 + x51 + x60 + x114 + x186 >= 1
 R43: x7 + x37 + x40 + x42 + x43 + x44 + x52 + x61 + x115 + x187 >= 1
 R44: x8 + x38 + x41 + x42 + x43 + x44 + x53 + x62 + x116 + x188 >= 1
 R45: x9 + x36 + x45 + x46 + x47 + x48 + x51 + x63 + x117 + x189 >= 1
 R46: x10 + x37 + x45 + x46 + x47 + x49 + x52 + x64 + x118 + x190 >= 1
 R47: x11 + x38 + x45 + x46 + x47 + x50 + x53 + x65 + x119 + x191 >= 1
 R48: x12 + x39 + x45 + x48 + x49 + x50 + x51 + x66 + x120 + x192 >= 1
 R49: x13 + x40 + x46 + x48 + x49 + x50 + x52 + x67 + x121 + x193 >= 1
 R50: x14 + x41 + x47 + x48 + x49 + x50 + x53 + x68 + x122 + x194 >= 1
 R51: x15 + x42 + x45 + x48 + x51 + x52 + x53 + x69 + x123 + x195 >= 1
 R52: x16 + x43 + x46 + x49 + x51 + x52 + x53 + x70 + x124 + x196 >= 1
 R53: x17 + x44 + x47 + x50 + x51 + x52 + x53 + x71 + x125 + x197 >= 1
 R54: x18 + x36 + x54 + x55 + x56 + x57 + x60 + x63 + x126 + x198 >= 1
 R55: x19 + x37 + x54 + x55 + x56 + x58 + x61 + x64 + x127 + x199 >= 1
 R56: x20 + x38 + x54 + x55 + x56 + x59 + x62 + x65 + x128 + x200 >= 1
 R57: x21 + x39 + x54 + x57 + x58 + x59 + x60 + x66 + x129 + x201 >= 1
 R58: x22 + x40 + x55 + x57 + x58 + x59 + x61 + x67 + x130 + x202 >= 1
 R59: x23 + x41 + x56 + x57 + x58 + x59 + x62 + x68 + x131 + x203 >= 1
 R60: x24 + x42 + x54 + x57 + x60 + x61 + x62 + x69 + x132 + x204 >= 1
 R61: x25 + x43 + x55 + x58 + x60 + x61 + x62 + x70 + x133 + x205 >= 1
 R62: x26 + x44 + x56 + x59 + x60 + x61 + x62 + x71 + x134 + x206 >= 1
 R63: x27 + x45 + x54 + x63 + x64 + x65 + x66 + x69 + x135 + x207 >= 1
 R64: x28 + x46 + x55 + x63 + x64 + x65 + x67 + x70 + x136 + x208 >= 1
 R65: x29 + x47 + x56 + x63 + x64 + x65 + x68 + x71 + x137 + x209 >= 1
 R66: x30 + x48 + x57 + x63 + x66 + x67 + x68 + x69 + x138 + x210 >= 1
 R67: x31 + x49 + x58 + x64 + x66 + x67 + x68 + x70 + x139 + x211 >= 1
 R68: x32 + x50 + x59 + x65 + x66 + x67 + x68 + x71 + x140 + x212 >= 1
 R69: x33 + x51 + x60 + x63 + x66 + x69 + x70 + x71 + x141 + x213 >= 1
 R70: x34 + x52 + x61 + x64 + x67 + x69 + x70 + x71 + x142 + x214 >= 1
 R71: x35 + x53 + x62 + x65 + x68 + x69 + x70 + x71 + x143 + x215 >= 1
 R72: x0 + x72 + x73 + x74 + x75 + x78 + x81 + x90 + x108 + x216 >= 1
 R73: x1 + x72 + x73 + x74 + x76 + x79 + x82 + x91 + x109 + x217 >= 1
 R74: x2 + x72 + x73 + x74 + x77 + x80 + x83 + x92 + x110 + x218 >= 1
 R75: x3 + x72 + x75 + x76 + x77 + x78 + x84 + x93 + x111 + x219 >= 1
 R76: x4 + x73 + x75 + x76 + x77 + x79 + x85 + x94 + x112 + x220 >= 1
 R77: x5 + x74 + x75 + x76 + x77 + x80 + x86 + x95 + x113 + x221 >= 1
 R78: x6 + x72 + x75 + x78 + x79 + x80 + x87 + x96 + x114 + x222 >= 1
 R79: x7 + x73 + x76 + x78 + x79 + x80 + x88 + x97 + x115 + x223 >= 1
 R80: x8 + x74 + x77 + x78 + x79 + x80 + x89 + x98 + x116 + x224 >= 1
 R81: x9 + x72 + x81 + x82 + x83 + x84 + x87 + x99 + x117 + x225 >= 1
 R82: x10 + x73 + x81 + x82 + x83 + x85 + x88 + x100 + x118 + x226 >= 1
 R83: x11 + x74 + x81 + x82 + x83 + x86 + x89 + x101 + x119 + x227 >= 1
 R84: x12 + x75 + x81 + x84 + x85 + x86 + x87 + x102 + x120 + x228 >= 1
 R85: x13 + x76 + x82 + x84 + x85 + x86 + x88 + x103 + x121 + x229 >= 1
 R86: x14 + x77 + x83 + x84 + x85 + x86 + x89 + x104 + x122 + x230 >= 1
 R87: x15 + x78 + x81 + x84 + x87 + x88 + x89 + x105 + x123 + x231 >= 1
 R88: x16 + x79 + x82 + x85 + x87 + x88 + x89 + x106 + x124 + x232 >= 1
 R89: x17 + x80 + x83 + x86 + x87 + x88 + x89 + x107 + x125 + x233 >= 1
 R90: x18 + x72 + x90 + x91 + x92 + x93 + x96 + x99 + x126 + x234 >= 1
 R91: x19 + x73 + x90 + x91 + x92 + x94 + x97 + x100 + x127 + x235 >= 1
 R92: x20 + x74 + x90 + x91 + x92 + x95 + x98 + x101 + x128 + x236 >= 1
 R93: x21 + x75 + x90 + x93 + x94 + x95 + x96 + x102 + x129 + x237 >= 1
 R94: x22 + x76 + x91 + x93 + x94 + x95 + x97 + x103 + x130 + x238 >= 1
 R95: x23 + x77 + x92 + x93 + x94 + x95 + x98 + x104 + x131 + x239 >= 1
 R96: x24 + x78 + x90 + x93 + x96 + x97 + x98 + x105 + x132 + x240 >= 1
 R97: x25 + x79 + x91 + x94 + x96 + x97 + x98 + x106 + x133 + x241 >= 1
 R98: x26 + x80 + x92 + x95 + x96 + x97 + x98 + x107 + x134 + x242 >= 1
 R99: x27 + x81 + x90 + x99 + x100 + x101 + x102 + x105 + x135 + x243 >= 1
 R100: x28 + x82 + x91 + x99 + x100 + x101 + x103 + x106 + x136 + x244
   >= 1
 R101: x29 + x83 + x92 + x99 + x100 + x101 + x104 + x107 + x137 + x245
   >= 1
 R102: x30 + x84 + x93 + x99 + x102 + x103 + x104 + x105 + x138 + x246
   >= 1
 R103: x31 + x85 + x94 + x100 + x102 + x103 + x104 + x106 + x139 + x247
   >= 1
 R104: x32 + x86 + x95 + x101 + x102 + x103 + x104 + x107 + x140 + x248
   >= 1
 R105: x33 + x87 + x96 + x99 + x102 + x105 + x106 + x107 + x141 + x249
   >= 1
 R106: x34 + x88 + x97 + x100 + x103 + x105 + x106 + x107 + x142 + x250
   >= 1
 R107: x35 + x89 + x98 + x101 + x104 + x105 + x106 + x107 + x143 + x251
   >= 1
 R108: x36 + x72 + x108 + x109 + x110 + x111 + x114 + x117 + x126 + x252
   >= 1
 R109: x37 + x73 + x108 + x109 + x110 + x112 + x115 + x118 + x127 + x253
   >= 1
 R110: x38 + x74 + x108 + x109 + x110 + x113 + x116 + x119 + x128 + x254
   >= 1
 R111: x39 + x75 + x108 + x111 + x112 + x113 + x114 + x120 + x129 + x255
   >= 1
 R112: x40 + x76 + x109 + x111 + x112 + x113 + x115 + x121 + x130 + x256
   >= 1
 R113: x41 + x77 + x110 + x111 + x112 + x113 + x116 + x122 + x131 + x257
   >= 1
 R114: x42 + x78 + x108 + x111 + x114 + x115 + x116 + x123 + x132 + x258
   >= 1
 R115: x43 + x79 + x109 + x112 + x114 + x115 + x116 + x124 + x133 + x259
   >= 1
 R116: x44 + x80 + x110 + x113 + x114 + x115 + x116 + x125 + x134 + x260
   >= 1
 R117: x45 + x81 + x108 + x117 + x118 + x119 + x120 + x123 + x135 + x261
   >= 1
 R118: x46 + x82 + x109 + x117 + x118 + x119 + x121 + x124 + x136 + x262
   >= 1
 R119: x47 + x83 + x110 + x117 + x118 + x119 + x122 + x125 + x137 + x263
   >= 1
 R120: x48 + x84 + x111 + x117 + x120 + x121 + x122 + x123 + x138 + x264
   >= 1
 R121: x49 + x85 + x112 + x118 + x120 + x121 + x122 + x124 + x139 + x265
   >= 1
 R122: x50 + x86 + x113 + x119 + x120 + x121 + x122 + x125 + x140 + x266
   >= 1
 R123: x51 + x87 + x114 + x117 + x120 + x123 + x124 + x125 + x141 + x267
   >= 1
 R124: x52 + x88 + x115 + x118 + x121 + x123 + x124 + x125 + x142 + x268
   >= 1
 R125: x53 + x89 + x116 + x119 + x122 + x123 + x124 + x125 + x143 + x269
   >= 1
 R126: x54 + x90 + x108 + x126 + x127 + x128 + x129 + x132 + x135 + x270
   >= 1
 R127: x55 + x91 + x109 + x126 + x127 + x128 + x130 + x133 + x136 + x271
   >= 1
 R128: x56 + x92 + x110 + x126 + x127 + x128 + x131 + x134 + x137 + x272
   >= 1
 R129: x57 + x93 + x111 + x126 + x129 + x130 + x131 + x132 + x138 + x273
   >= 1
 R130: x58 + x94 + x112 + x127 + x129 + x130 + x131 + x133 + x139 + x274
   >= 1
 R131: x59 + x95 + x113 + x128 + x129 + x130 + x131 + x134 + x140 + x275
   >= 1
 R132: x60 + x96 + x114 + x126 + x129 + x132 + x133 + x134 + x141 + x276
   >= 1
 R133: x61 + x97 + x115 + x127 + x130 + x132 + x133 + x134 + x142 + x277
   >= 1
 R134: x62 + x98 + x116 + x128 + x131 + x132 + x133 + x134 + x143 + x278
   >= 1
 R135: x63 + x99 + x117 + x126 + x135 + x136 + x137 + x138 + x141 + x279
   >= 1
 R136: x64 + x100 + x118 + x127 + x135 + x136 + x137 + x139 + x142 + x280
   >= 1
 R137: x65 + x101 + x119 + x128 + x135 + x136 + x137 + x140 + x143 + x281
   >= 1
 R138: x66 + x102 + x120 + x129 + x135 + x138 + x139 + x140 + x141 + x282
   >= 1
 R139: x67 + x103 + x121 + x130 + x136 + x138 + x139 + x140 + x142 + x283
   >= 1
 R140: x68 + x104 + x122 + x131 + x137 + x138 + x139 + x140 + x143 + x284
   >= 1
 R141: x69 + x105 + x123 + x132 + x135 + x138 + x141 + x142 + x143 + x285
   >= 1
 R142: x70 + x106 + x124 + x133 + x136 + x139 + x141 + x142 + x143 + x286
   >= 1
 R143: x71 + x107 + x125 + x134 + x137 + x140 + x141 + x142 + x143 + x287
   >= 1
 R144: x0 + x144 + x145 + x146 + x147 + x150 + x153 + x162 + x180 + x216
   >= 1
 R145: x1 + x144 + x145 + x146 + x148 + x151 + x154 + x163 + x181 + x217
   >= 1
 R146: x2 + x144 + x145 + x146 + x149 + x152 + x155 + x164 + x182 + x218
   >= 1
 R147: x3 + x144 + x147 + x148 + x149 + x150 + x156 + x165 + x183 + x219
   >= 1
 R148: x4 + x145 + x147 + x148 + x149 + x151 + x157 + x166 + x184 + x220
   >= 1
 R149: x5 + x146 + x147 + x148 + x149 + x152 + x158 + x167 + x185 + x221
   >= 1
 R150: x6 + x144 + x147 + x150 + x151 + x152 + x159 + x168 + x186 + x222
   >= 1
 R151: x7 + x145 + x148 + x150 + x151 + x152 + x160 + x169 + x187 + x223
   >= 1
 R152: x8 + x146 + x149 + x150 + x151 + x152 + x161 + x170 + x188 + x224
   >= 1
 R153: x9 + x144 + x153 + x154 + x155 + x156 + x159 + x171 + x189 + x225
   >= 1
 R154: x10 + x145 + x153 + x154 + x155 + x157 + x160 + x172 + x190 + x226
   >= 1
 R155: x11 + x146 + x153 + x154 + x155 + x158 + x161 + x173 + x191 + x227
   >= 1
 R156: x12 + x147 + x153 + x156 + x157 + x158 + x159 + x174 + x192 + x228
   >= 1
 R157: x13 + x148 + x154 + x156 + x157 + x158 + x160 + x175 + x193 + x229
   >= 1
 R158: x14 + x149 + x155 + x156 + x157 + x158 + x161 + x176 + x194 + x230
   >= 1
 R159: x15 + x150 + x153 + x156 + x159 + x160 + x161 + x177 + x195 + x231
   >= 1
 R160: x16 + x151 + x154 + x157 + x159 + x160 + x161 + x178 + x196 + x232
   >= 1
 R161: x17 + x152 + x155 + x158 + x159 + x160 + x161 + x179 + x197 + x233
   >= 1
 R162: x18 + x144 + x162 + x163 + x164 + x165 + x168 + x171 + x198 + x234
   >= 1
 R163: x19 + x145 + x162 + x163 + x164 + x166 + x169 + x172 + x199 + x235
   >= 1
 R164: x20 + x146 + x162 + x163 + x164 + x167 + x170 + x173 + x200 + x236
   >= 1
 R165: x21 + x147 + x162 + x165 + x166 + x167 + x168 + x174 + x201 + x237
   >= 1
 R166: x22 + x148 + x163 + x165 + x166 + x167 + x169 + x175 + x202 + x238
   >= 1
 R167: x23 + x149 + x164 + x165 + x166 + x167 + x170 + x176 + x203 + x239
   >= 1
 R168: x24 + x150 + x162 + x165 + x168 + x169 + x170 + x177 + x204 + x240
   >= 1
 R169: x25 + x151 + x163 + x166 + x168 + x169 + x170 + x178 + x205 + x241
   >= 1
 R170: x26 + x152 + x164 + x167 + x168 + x169 + x170 + x179 + x206 + x242
   >= 1
 R171: x27 + x153 + x162 + x171 + x172 + x173 + x174 + x177 + x207 + x243
   >= 1
 R172: x28 + x154 + x163 + x171 + x172 + x173 + x175 + x178 + x208 + x244
   >= 1
 R173: x29 + x155 + x164 + x171 + x172 + x173 + x176 + x179 + x209 + x245
   >= 1
 R174: x30 + x156 + x165 + x171 + x174 + x175 + x176 + x177 + x210 + x246
   >= 1
 R175: x31 + x157 + x166 + x172 + x174 + x175 + x176 + x178 + x211 + x247
   >= 1
 R176: x32 + x158 + x167 + x173 + x174 + x175 + x176 + x179 + x212 + x248
   >= 1
 R177: x33 + x159 + x168 + x171 + x174 + x177 + x178 + x179 + x213 + x249
   >= 1
 R178: x34 + x160 + x169 + x172 + x175 + x177 + x178 + x179 + x214 + x250
   >= 1
 R179: x35 + x161 + x170 + x173 + x176 + x177 + x178 + x179 + x215 + x251
   >= 1
 R180: x36 + x144 + x180 + x181 + x182 + x183 + x186 + x189 + x198 + x252
   >= 1
 R181: x37 + x145 + x180 + x181 + x182 + x184 + x187 + x190 + x199 + x253
   >= 1
 R182: x38 + x146 + x180 + x181 + x182 + x185 + x188 + x191 + x200 + x254
   >= 1
 R183: x39 + x147 + x180 + x183 + x184 + x185 + x186 + x192 + x201 + x255
   >= 1
 R184: x40 + x148 + x181 + x183 + x184 + x185 + x187 + x193 + x202 + x256
   >= 1
 R185: x41 + x149 + x182 + x183 + x184 + x185 + x188 + x194 + x203 + x257
   >= 1
 R186: x42 + x150 + x180 + x183 + x186 + x187 + x188 + x195 + x204 + x258
   >= 1
 R187: x43 + x151 + x181 + x184 + x186 + x187 + x188 + x196 + x205 + x259
   >= 1
 R188: x44 + x152 + x182 + x185 + x186 + x187 + x188 + x197 + x206 + x260
   >= 1
 R189: x45 + x153 + x180 + x189 + x190 + x191 + x192 + x195 + x207 + x261
   >= 1
 R190: x46 + x154 + x181 + x189 + x190 + x191 + x193 + x196 + x208 + x262
   >= 1
 R191: x47 + x155 + x182 + x189 + x190 + x191 + x194 + x197 + x209 + x263
   >= 1
 R192: x48 + x156 + x183 + x189 + x192 + x193 + x194 + x195 + x210 + x264
   >= 1
 R193: x49 + x157 + x184 + x190 + x192 + x193 + x194 + x196 + x211 + x265
   >= 1
 R194: x50 + x158 + x185 + x191 + x192 + x193 + x194 + x197 + x212 + x266
   >= 1
 R195: x51 + x159 + x186 + x189 + x192 + x195 + x196 + x197 + x213 + x267
   >= 1
 R196: x52 + x160 + x187 + x190 + x193 + x195 + x196 + x197 + x214 + x268
   >= 1
 R197: x53 + x161 + x188 + x191 + x194 + x195 + x196 + x197 + x215 + x269
   >= 1
 R198: x54 + x162 + x180 + x198 + x199 + x200 + x201 + x204 + x207 + x270
   >= 1
 R199: x55 + x163 + x181 + x198 + x199 + x200 + x202 + x205 + x208 + x271
   >= 1
 R200: x56 + x164 + x182 + x198 + x199 + x200 + x203 + x206 + x209 + x272
   >= 1
 R201: x57 + x165 + x183 + x198 + x201 + x202 + x203 + x204 + x210 + x273
   >= 1
 R202: x58 + x166 + x184 + x199 + x201 + x202 + x203 + x205 + x211 + x274
   >= 1
 R203: x59 + x167 + x185 + x200 + x201 + x202 + x203 + x206 + x212 + x275
   >= 1
 R204: x60 + x168 + x186 + x198 + x201 + x204 + x205 + x206 + x213 + x276
   >= 1
 R205: x61 + x169 + x187 + x199 + x202 + x204 + x205 + x206 + x214 + x277
   >= 1
 R206: x62 + x170 + x188 + x200 + x203 + x204 + x205 + x206 + x215 + x278
   >= 1
 R207: x63 + x171 + x189 + x198 + x207 + x208 + x209 + x210 + x213 + x279
   >= 1
 R208: x64 + x172 + x190 + x199 + x207 + x208 + x209 + x211 + x214 + x280
   >= 1
 R209: x65 + x173 + x191 + x200 + x207 + x208 + x209 + x212 + x215 + x281
   >= 1
 R210: x66 + x174 + x192 + x201 + x207 + x210 + x211 + x212 + x213 + x282
   >= 1
 R211: x67 + x175 + x193 + x202 + x208 + x210 + x211 + x212 + x214 + x283
   >= 1
 R212: x68 + x176 + x194 + x203 + x209 + x210 + x211 + x212 + x215 + x284
   >= 1
 R213: x69 + x177 + x195 + x204 + x207 + x210 + x213 + x214 + x215 + x285
   >= 1
 R214: x70 + x178 + x196 + x205 + x208 + x211 + x213 + x214 + x215 + x286
   >= 1
 R215: x71 + x179 + x197 + x206 + x209 + x212 + x213 + x214 + x215 + x287
   >= 1
 R216: x72 + x144 + x216 + x217 + x218 + x219 + x222 + x225 + x234 + x252
   >= 1
 R217: x73 + x145 + x216 + x217 + x218 + x220 + x223 + x226 + x235 + x253
   >= 1
 R218: x74 + x146 + x216 + x217 + x218 + x221 + x224 + x227 + x236 + x254
   >= 1
 R219: x75 + x147 + x216 + x219 + x220 + x221 + x222 + x228 + x237 + x255
   >= 1
 R220: x76 + x148 + x217 + x219 + x220 + x221 + x223 + x229 + x238 + x256
   >= 1
 R221: x77 + x149 + x218 + x219 + x220 + x221 + x224 + x230 + x239 + x257
   >= 1
 R222: x78 + x150 + x216 + x219 + x222 + x223 + x224 + x231 + x240 + x258
   >= 1
 R223: x79 + x151 + x217 + x220 + x222 + x223 + x224 + x232 + x241 + x259
   >= 1
 R224: x80 + x152 + x218 + x221 + x222 + x223 + x224 + x233 + x242 + x260
   >= 1
 R225: x81 + x153 + x216 + x225 + x226 + x227 + x228 + x231 + x243 + x261
   >= 1
 R226: x82 + x154 + x217 + x225 + x226 + x227 + x229 + x232 + x244 + x262
   >= 1
 R227: x83 + x155 + x218 + x225 + x226 + x227 + x230 + x233 + x245 + x263
   >= 1
 R228: x84 + x156 + x219 + x225 + x228 + x229 + x230 + x231 + x246 + x264
   >= 1
 R229: x85 + x157 + x220 + x226 + x228 + x229 + x230 + x232 + x247 + x265
   >= 1
 R230: x86 + x158 + x221 + x227 + x228 + x229 + x230 + x233 + x248 + x266
   >= 1
 R231: x87 + x159 + x222 + x225 + x228 + x231 + x232 + x233 + x249 + x267
   >= 1
 R232: x88 + x160 + x223 + x226 + x229 + x231 + x232 + x233 + x250 + x268
   >= 1
 R233: x89 + x161 + x224 + x227 + x230 + x231 + x232 + x233 + x251 + x269
   >= 1
 R234: x90 + x162 + x216 + x234 + x235 + x236 + x237 + x240 + x243 + x270
   >= 1
 R235: x91 + x163 + x217 + x234 + x235 + x236 + x238 + x241 + x244 + x271
   >= 1
 R236: x92 + x164 + x218 + x234 + x235 + x236 + x239 + x242 + x245 + x272
   >= 1
 R237: x93 + x165 + x219 + x234 + x237 + x238 + x239 + x240 + x246 + x273
   >= 1
 R238: x94 + x166 + x220 + x235 + x237 + x238 + x239 + x241 + x247 + x274
   >= 1
 R239: x95 + x167 + x221 + x236 + x237 + x238 + x239 + x242 + x248 + x275
   >= 1
 R240: x96 + x168 + x222 + x234 + x237 + x240 + x241 + x242 + x249 + x276
   >= 1
 R241: x97 + x169 + x223 + x235 + x238 + x240 + x241 + x242 + x250 + x277
   >= 1
 R242: x98 + x170 + x224 + x236 + x239 + x240 + x241 + x242 + x251 + x278
   >= 1
 R243: x99 + x171 + x225 + x234 + x243 + x244 + x245 + x246 + x249 + x279
   >= 1
 R244: x100 + x172 + x226 + x235 + x243 + x244 + x245 + x247 + x250 + x280
   >= 1
 R245: x101 + x173 + x227 + x236 + x243 + x244 + x245 + x248 + x251 + x281
   >= 1
 R246: x102 + x174 + x228 + x237 + x243 + x246 + x247 + x248 + x249 + x282
   >= 1
 R247: x103 + x175 + x229 + x238 + x244 + x246 + x247 + x248 + x250 + x283
   >= 1
 R248: x104 + x176 + x230 + x239 + x245 + x246 + x247 + x248 + x251 + x284
   >= 1
 R249: x105 + x177 + x231 + x240 + x243 + x246 + x249 + x250 + x251 + x285
   >= 1
 R250: x106 + x178 + x232 + x241 + x244 + x247 + x249 + x250 + x251 + x286
   >= 1
 R251: x107 + x179 + x233 + x242 + x245 + x248 + x249 + x250 + x251 + x287
   >= 1
 R252: x108 + x180 + x216 + x252 + x253 + x254 + x255 + x258 + x261 + x270
   >= 1
 R253: x109 + x181 + x217 + x252 + x253 + x254 + x256 + x259 + x262 + x271
   >= 1
 R254: x110 + x182 + x218 + x252 + x253 + x254 + x257 + x260 + x263 + x272
   >= 1
 R255: x111 + x183 + x219 + x252 + x255 + x256 + x257 + x258 + x264 + x273
   >= 1
 R256: x112 + x184 + x220 + x253 + x255 + x256 + x257 + x259 + x265 + x274
   >= 1
 R257: x113 + x185 + x221 + x254 + x255 + x256 + x257 + x260 + x266 + x275
   >= 1
 R258: x114 + x186 + x222 + x252 + x255 + x258 + x259 + x260 + x267 + x276
   >= 1
 R259: x115 + x187 + x223 + x253 + x256 + x258 + x259 + x260 + x268 + x277
   >= 1
 R260: x116 + x188 + x224 + x254 + x257 + x258 + x259 + x260 + x269 + x278
   >= 1
 R261: x117 + x189 + x225 + x252 + x261 + x262 + x263 + x264 + x267 + x279
   >= 1
 R262: x118 + x190 + x226 + x253 + x261 + x262 + x263 + x265 + x268 + x280
   >= 1
 R263: x119 + x191 + x227 + x254 + x261 + x262 + x263 + x266 + x269 + x281
   >= 1
 R264: x120 + x192 + x228 + x255 + x261 + x264 + x265 + x266 + x267 + x282
   >= 1
 R265: x121 + x193 + x229 + x256 + x262 + x264 + x265 + x266 + x268 + x283
   >= 1
 R266: x122 + x194 + x230 + x257 + x263 + x264 + x265 + x266 + x269 + x284
   >= 1
 R267: x123 + x195 + x231 + x258 + x261 + x264 + x267 + x268 + x269 + x285
   >= 1
 R268: x124 + x196 + x232 + x259 + x262 + x265 + x267 + x268 + x269 + x286
   >= 1
 R269: x125 + x197 + x233 + x260 + x263 + x266 + x267 + x268 + x269 + x287
   >= 1
 R270: x126 + x198 + x234 + x252 + x270 + x271 + x272 + x273 + x276 + x279
   >= 1
 R271: x127 + x199 + x235 + x253 + x270 + x271 + x272 + x274 + x277 + x280
   >= 1
 R272: x128 + x200 + x236 + x254 + x270 + x271 + x272 + x275 + x278 + x281
   >= 1
 R273: x129 + x201 + x237 + x255 + x270 + x273 + x274 + x275 + x276 + x282
   >= 1
 R274: x130 + x202 + x238 + x256 + x271 + x273 + x274 + x275 + x277 + x283
   >= 1
 R275: x131 + x203 + x239 + x257 + x272 + x273 + x274 + x275 + x278 + x284
   >= 1
 R276: x132 + x204 + x240 + x258 + x270 + x273 + x276 + x277 + x278 + x285
   >= 1
 R277: x133 + x205 + x241 + x259 + x271 + x274 + x276 + x277 + x278 + x286
   >= 1
 R278: x134 + x206 + x242 + x260 + x272 + x275 + x276 + x277 + x278 + x287
   >= 1
 R279: x135 + x207 + x243 + x261 + x270 + x279 + x280 + x281 + x282 + x285
   >= 1
 R280: x136 + x208 + x244 + x262 + x271 + x279 + x280 + x281 + x283 + x286
   >= 1
 R281: x137 + x209 + x245 + x263 + x272 + x279 + x280 + x281 + x284 + x287
   >= 1
 R282: x138 + x210 + x246 + x264 + x273 + x279 + x282 + x283 + x284 + x285
   >= 1
 R283: x139 + x211 + x247 + x265 + x274 + x280 + x282 + x283 + x284 + x286
   >= 1
 R284: x140 + x212 + x248 + x266 + x275 + x281 + x282 + x283 + x284 + x287
   >= 1
 R285: x141 + x213 + x249 + x267 + x276 + x279 + x282 + x285 + x286 + x287
   >= 1
 R286: x142 + x214 + x250 + x268 + x277 + x280 + x283 + x285 + x286 + x287
   >= 1
 R287: x143 + x215 + x251 + x269 + x278 + x281 + x284 + x285 + x286 + x287
   >= 1
Bounds
 x0 <= 1
 x1 <= 1
 x2 <= 1
 x3 <= 1
 x4 <= 1
 x5 <= 1
 x6 <= 1
 x7 <= 1
 x8 <= 1
 x9 <= 1
 x10 <= 1
 x11 <= 1
 x12 <= 1
 x13 <= 1
 x14 <= 1
 x15 <= 1
 x16 <= 1
 x17 <= 1
 x18 <= 1
 x19 <= 1
 x20 <= 1
 x21 <= 1
 x22 <= 1
 x23 <= 1
 x24 <= 1
 x25 <= 1
 x26 <= 1
 x27 <= 1
 x28 <= 1
 x29 <= 1
 x30 <= 1
 x31 <= 1
 x32 <= 1
 x33 <= 1
 x34 <= 1
 x35 <= 1
 x36 <= 1
 x37 <= 1
 x38 <= 1
 x39 <= 1
 x40 <= 1
 x41 <= 1
 x42 <= 1
 x43 <= 1
 x44 <= 1
 x45 <= 1
 x46 <= 1
 x47 <= 1
 x48 <= 1
 x49 <= 1
 x50 <= 1
 x51 <= 1
 x52 <= 1
 x53 <= 1
 x54 <= 1
 x55 <= 1
 x56 <= 1
 x57 <= 1
 x58 <= 1
 x59 <= 1
 x60 <= 1
 x61 <= 1
 x62 <= 1
 x63 <= 1
 x64 <= 1
 x65 <= 1
 x66 <= 1
 x67 <= 1
 x68 <= 1
 x69 <= 1
 x70 <= 1
 x71 <= 1
 x72 <= 1
 x73 <= 1
 x74 <= 1
 x75 <= 1
 x76 <= 1
 x77 <= 1
 x78 <= 1
 x79 <= 1
 x80 <= 1
 x81 <= 1
 x82 <= 1
 x83 <= 1
 x84 <= 1
 x85 <= 1
 x86 <= 1
 x87 <= 1
 x88 <= 1
 x89 <= 1
 x90 <= 1
 x91 <= 1
 x92 <= 1
 x93 <= 1
 x94 <= 1
 x95 <= 1
 x96 <= 1
 x97 <= 1
 x98 <= 1
 x99 <= 1
 x100 <= 1
 x101 <= 1
 x102 <= 1
 x103 <= 1
 x104 <= 1
 x105 <= 1
 x106 <= 1
 x107 <= 1
 x108 <= 1
 x109 <= 1
 x110 <= 1
 x111 <= 1
 x112 <= 1
 x113 <= 1
 x114 <= 1
 x115 <= 1
 x116 <= 1
 x117 <= 1
 x118 <= 1
 x119 <= 1
 x120 <= 1
 x121 <= 1
 x122 <= 1
 x123 <= 1
 x124 <= 1
 x125 <= 1
 x126 <= 1
 x127 <= 1
 x128 <= 1
 x129 <= 1
 x130 <= 1
 x131 <= 1
 x132 <= 1
 x133 <= 1
 x134 <= 1
 x135 <= 1
 x136 <= 1
 x137 <= 1
 x138 <= 1
 x139 <= 1
 x140 <= 1
 x141 <= 1
 x142 <= 1
 x143 <= 1
 x144 <= 1
 x145 <= 1
 x146 <= 1
 x147 <= 1
 x148 <= 1
 x149 <= 1
 x150 <= 1
 x151 <= 1
 x152 <= 1
 x153 <= 1
 x154 <= 1
 x155 <= 1
 x156 <= 1
 x157 <= 1
 x158 <= 1
 x159 <= 1
 x160 <= 1
 x161 <= 1
 x162 <= 1
 x163 <= 1
 x164 <= 1
 x165 <= 1
 x166 <= 1
 x167 <= 1
 x168 <= 1
 x169 <= 1
 x170 <= 1
 x171 <= 1
 x172 <= 1
 x173 <= 1
 x174 <= 1
 x175 <= 1
 x176 <= 1
 x177 <= 1
 x178 <= 1
 x179 <= 1
 x180 <= 1
 x181 <= 1
 x182 <= 1
 x183 <= 1
 x184 <= 1
 x185 <= 1
 x186 <= 1
 x187 <= 1
 x188 <= 1
 x189 <= 1
 x190 <= 1
 x191 <= 1
 x192 <= 1
 x193 <= 1
 x194 <= 1
 x195 <= 1
 x196 <= 1
 x197 <= 1
 x198 <= 1
 x199 <= 1
 x200 <= 1
 x201 <= 1
 x202 <= 1
 x203 <= 1
 x204 <= 1
 x205 <= 1
 x206 <= 1
 x207 <= 1
 x208 <= 1
 x209 <= 1
 x210 <= 1
 x211 <= 1
 x212 <= 1
 x213 <= 1
 x214 <= 1
 x215 <= 1
 x216 <= 1
 x217 <= 1
 x218 <= 1
 x219 <= 1
 x220 <= 1
 x221 <= 1
 x222 <= 1
 x223 <= 1
 x224 <= 1
 x225 <= 1
 x226 <= 1
 x227 <= 1
 x228 <= 1
 x229 <= 1
 x230 <= 1
 x231 <= 1
 x232 <= 1
 x233 <= 1
 x234 <= 1
 x235 <= 1
 x236 <= 1
 x237 <= 1
 x238 <= 1
 x239 <= 1
 x240 <= 1
 x241 <= 1
 x242 <= 1
 x243 <= 1
 x244 <= 1
 x245 <= 1
 x246 <= 1
 x247 <= 1
 x248 <= 1
 x249 <= 1
 x250 <= 1
 x251 <= 1
 x252 <= 1
 x253 <= 1
 x254 <= 1
 x255 <= 1
 x256 <= 1
 x257 <= 1
 x258 <= 1
 x259 <= 1
 x260 <= 1
 x261 <= 1
 x262 <= 1
 x263 <= 1
 x264 <= 1
 x265 <= 1
 x266 <= 1
 x267 <= 1
 x268 <= 1
 x269 <= 1
 x270 <= 1
 x271 <= 1
 x272 <= 1
 x273 <= 1
 x274 <= 1
 x275 <= 1
 x276 <= 1
 x277 <= 1
 x278 <= 1
 x279 <= 1
 x280 <= 1
 x281 <= 1
 x282 <= 1
 x283 <= 1
 x284 <= 1
 x285 <= 1
 x286 <= 1
 x287 <= 1
End
